benchmarks_vrp/CMT4/no_cluster/CMT4_3.vrp
NAME: CMT4_3
TYPE: CVRP
COMMENT: 1028.42 - Cluster Nr.3
DIMENSION: 12
CAPACITY: 200
EDGE_WEIGHT_TYPE: EUC_2D
NODE_COORD_TYPE: TWOD_COORDS
NODE_COORD_SECTION: 
7 36 26
9 25 30
10 35 35
5 21 24
1 26 27
12 32 39
4 26 35
6 22 27
11 31 32
8 35 40
2 25 32
3 37 31
DEPOT_SECTION: 
10
-1
DEMAND_SECTION: 
9 3
10 0
5 28
6 11
3 14
1 27
7 18
11 29
12 5
2 25
8 16
4 15
EOF
