benchmarks_vrp/CMT4/no_cluster/CMT4_3.tour
NAME: CMT4_3 solution
TYPE: TOUR
TOUR_SECTION:
10 3 7 11 1 5 6 9 2 4 12 8 -1
-1
EOF